c A SAT instance generated from a 3-CNF formula that had 24 clauses and 8 variables
p cnf 8 24
-1 -4 2 0
-5 7 4 0
5 -4 -7 0
7 -4 -2 0
-5 -6 8 0
-1 6 5 0
-3 2 -5 0
8 -3 5 0
7 -3 1 0
-5 1 6 0
-2 6 -8 0
6 7 2 0
-6 -8 5 0
-8 -2 1 0
8 7 -4 0
6 8 -4 0
-6 1 -5 0
3 -4 6 0
2 6 -1 0
7 5 -8 0
-2 -7 -1 0
-3 -8 1 0
-5 3 8 0
5 -2 1 0
